120
150
90
47
79
66
82
21
38
40
66
38
94
37
76
64
38
24
76
76
63
48
92
37
75
54
79
24
41
83
20
45
40
45
83
21
36
75
79
65
59
90
79
48
52
24
76
74
63
66
64
86
31
55
43
21
64
41
45
24
63
88
47
65
25
24
36
77
53
20
82
68
58
32
94
55
40
85
25
79
32
38
90
38
77
77
75
83
37
76
37
37
55
94
48
98
98
41
64
86
83
66
66
83
88
37
98
38
76
93
41
48
98
76
98
92
90
66
83
83
66
76
